language Essence 1.3

letting bot_end be [84, 153, 71, 23, 78, 150, 149, 154, 106, 36, 68, 129, 119, 2, 146, 141, 125, 51; int(1..18)]
letting bot_start be [63, 113, 33, 6, 0, 18, 55, 100, 150, 135, 47, 149, 103, 89, 106, 23, 17, 57; int(1..18)]
letting bots be 18
letting buffer_col be 2
letting buffer_row be 2
letting corridor_size be 1
letting n_shelves_col be 4
letting n_shelves_row be 3
letting shelf_col_size be 2
letting shelf_row_size be 1
